100
1000
379
391
312
388
355
353
374
376
341
323
386
346
373
389
333
336
386
363
354
317
325
347
385
365
344
370
331
383
336
327
368
361
377
375
338
345
363
302
312
389
324
319
386
383
384
315
376
327
315
341
330
378
346
314
327
301
365
340
385
324
352
332
369
360
365
308
379
347
323
301
301
353
363
368
302
345
351
349
393
314
397
329
304
301
371
306
327
353
323
348
312
324
394
332
314
390
396
328
351
315
